p edge 125 2500 100
e 1 2
e 1 3
e 1 4
e 1 5
e 1 6
e 1 7
e 1 8
e 1 9
e 1 10
e 1 11
e 1 12
e 1 13
e 1 14
e 1 15
e 1 16
e 1 17
e 1 18
e 1 19
e 1 20
e 1 21
e 1 22
e 1 23
e 1 24
e 1 25
e 1 26
e 1 27
e 1 28
e 1 29
e 1 30
e 1 31
e 1 32
e 1 33
e 1 34
e 1 35
e 1 36
e 1 37
e 1 38
e 1 39
e 1 40
e 1 41
e 1 42
e 1 43
e 1 44
e 1 45
e 1 46
e 1 48
e 1 49
e 1 50
e 1 51
e 1 52
e 1 53
e 1 55
e 1 56
e 1 57
e 1 58
e 1 59
e 1 60
e 1 62
e 1 63
e 1 64
e 1 67
e 1 72
e 1 73
e 1 75
e 1 78
e 1 79
e 1 81
e 1 82
e 1 83
e 1 84
e 1 85
e 1 86
e 1 87
e 1 88
e 1 89
e 1 90
e 1 97
e 1 99
e 1 105
e 1 106
e 1 109
e 1 110
e 1 113
e 1 114
e 1 115
e 1 124
e 2 27
e 2 28
e 2 29
e 2 30
e 2 31
e 2 32
e 2 33
e 2 36
e 2 37
e 2 39
e 2 40
e 2 42
e 2 43
e 2 47
e 2 52
e 2 53
e 2 56
e 2 57
e 2 58
e 2 62
e 2 68
e 2 69
e 2 70
e 2 71
e 2 79
e 2 87
e 2 92
e 2 100
e 2 102
e 2 103
e 2 106
e 2 107
e 2 111
e 2 118
e 2 120
e 2 122
e 3 27
e 3 28
e 3 29
e 3 30
e 3 31
e 3 33
e 3 34
e 3 35
e 3 36
e 3 37
e 3 41
e 3 42
e 3 45
e 3 47
e 3 48
e 3 50
e 3 58
e 3 61
e 3 63
e 3 64
e 3 65
e 3 70
e 3 71
e 3 72
e 3 76
e 3 80
e 3 81
e 3 88
e 3 109
e 3 114
e 3 116
e 3 121
e 4 27
e 4 28
e 4 29
e 4 31
e 4 32
e 4 34
e 4 35
e 4 36
e 4 37
e 4 38
e 4 39
e 4 40
e 4 41
e 4 42
e 4 43
e 4 45
e 4 46
e 4 50
e 4 51
e 4 52
e 4 53
e 4 56
e 4 57
e 4 58
e 4 64
e 4 66
e 4 67
e 4 75
e 4 76
e 4 77
e 4 78
e 4 84
e 4 85
e 4 90
e 4 92
e 4 96
e 4 97
e 4 99
e 4 100
e 4 102
e 4 108
e 4 113
e 4 116
e 4 122
e 5 28
e 5 29
e 5 30
e 5 31
e 5 34
e 5 35
e 5 40
e 5 43
e 5 44
e 5 45
e 5 58
e 5 62
e 5 63
e 5 66
e 5 76
e 5 78
e 5 93
e 5 95
e 5 99
e 5 101
e 5 104
e 5 108
e 5 124
e 6 27
e 6 28
e 6 29
e 6 30
e 6 31
e 6 32
e 6 33
e 6 34
e 6 35
e 6 36
e 6 37
e 6 38
e 6 40
e 6 43
e 6 46
e 6 49
e 6 50
e 6 51
e 6 52
e 6 54
e 6 55
e 6 56
e 6 59
e 6 62
e 6 66
e 6 68
e 6 70
e 6 80
e 6 81
e 6 83
e 6 86
e 6 88
e 6 91
e 6 95
e 6 96
e 6 103
e 6 109
e 6 114
e 6 116
e 6 118
e 6 123
e 6 125
e 7 27
e 7 28
e 7 29
e 7 30
e 7 31
e 7 32
e 7 34
e 7 35
e 7 38
e 7 42
e 7 44
e 7 46
e 7 48
e 7 53
e 7 54
e 7 69
e 7 74
e 7 84
e 7 89
e 7 99
e 7 103
e 7 104
e 7 116
e 8 27
e 8 28
e 8 29
e 8 30
e 8 31
e 8 32
e 8 33
e 8 34
e 8 35
e 8 38
e 8 39
e 8 41
e 8 46
e 8 47
e 8 48
e 8 49
e 8 50
e 8 55
e 8 57
e 8 59
e 8 63
e 8 65
e 8 66
e 8 70
e 8 74
e 8 76
e 8 77
e 8 96
e 8 99
e 8 108
e 8 110
e 8 112
e 8 113
e 8 119
e 8 122
e 9 27
e 9 28
e 9 29
e 9 30
e 9 32
e 9 33
e 9 35
e 9 43
e 9 53
e 9 82
e 9 83
e 9 93
e 9 98
e 10 27
e 10 28
e 10 29
e 10 30
e 10 31
e 10 32
e 10 33
e 10 34
e 10 41
e 10 51
e 10 52
e 10 56
e 10 58
e 10 62
e 10 64
e 10 69
e 10 70
e 10 74
e 10 76
e 10 91
e 10 92
e 10 93
e 10 94
e 10 97
e 10 98
e 10 101
e 10 110
e 10 120
e 10 121
e 10 123
e 11 27
e 11 28
e 11 29
e 11 31
e 11 32
e 11 34
e 11 35
e 11 36
e 11 37
e 11 38
e 11 45
e 11 51
e 11 55
e 11 60
e 11 61
e 11 62
e 11 70
e 11 72
e 11 73
e 11 74
e 11 76
e 11 85
e 11 89
e 11 96
e 11 116
e 11 118
e 11 120
e 11 125
e 12 27
e 12 28
e 12 29
e 12 30
e 12 31
e 12 32
e 12 33
e 12 34
e 12 36
e 12 37
e 12 38
e 12 39
e 12 42
e 12 45
e 12 46
e 12 47
e 12 49
e 12 50
e 12 55
e 12 56
e 12 57
e 12 58
e 12 67
e 12 68
e 12 87
e 12 92
e 12 93
e 12 96
e 12 99
e 12 110
e 12 113
e 12 116
e 12 119
e 12 123
e 12 125
e 13 27
e 13 28
e 13 29
e 13 30
e 13 31
e 13 32
e 13 33
e 13 34
e 13 35
e 13 36
e 13 38
e 13 39
e 13 40
e 13 41
e 13 43
e 13 44
e 13 45
e 13 47
e 13 49
e 13 52
e 13 53
e 13 54
e 13 55
e 13 59
e 13 60
e 13 63
e 13 64
e 13 65
e 13 68
e 13 69
e 13 73
e 13 77
e 13 79
e 13 89
e 13 92
e 13 105
e 13 110
e 13 113
e 13 114
e 13 119
e 14 27
e 14 29
e 14 33
e 14 35
e 14 36
e 14 38
e 14 39
e 14 40
e 14 41
e 14 43
e 14 44
e 14 46
e 14 47
e 14 49
e 14 52
e 14 58
e 14 65
e 14 69
e 14 71
e 14 80
e 14 81
e 14 83
e 14 92
e 14 94
e 14 95
e 14 109
e 14 112
e 14 117
e 14 125
e 15 27
e 15 28
e 15 29
e 15 31
e 15 32
e 15 33
e 15 34
e 15 39
e 15 40
e 15 41
e 15 43
e 15 44
e 15 45
e 15 46
e 15 52
e 15 56
e 15 60
e 15 63
e 15 64
e 15 66
e 15 67
e 15 69
e 15 72
e 15 76
e 15 80
e 15 85
e 15 86
e 15 87
e 15 90
e 15 92
e 15 95
e 15 97
e 15 100
e 15 101
e 15 109
e 15 114
e 15 115
e 15 118
e 15 121
e 16 27
e 16 28
e 16 29
e 16 30
e 16 31
e 16 33
e 16 34
e 16 35
e 16 36
e 16 37
e 16 38
e 16 39
e 16 40
e 16 42
e 16 44
e 16 45
e 16 46
e 16 47
e 16 52
e 16 53
e 16 54
e 16 57
e 16 60
e 16 62
e 16 65
e 16 68
e 16 69
e 16 70
e 16 71
e 16 75
e 16 76
e 16 81
e 16 86
e 16 100
e 16 101
e 16 103
e 16 112
e 16 117
e 17 27
e 17 28
e 17 29
e 17 30
e 17 31
e 17 32
e 17 35
e 17 36
e 17 37
e 17 39
e 17 40
e 17 41
e 17 45
e 17 46
e 17 48
e 17 49
e 17 50
e 17 52
e 17 57
e 17 59
e 17 62
e 17 66
e 17 68
e 17 79
e 17 80
e 17 83
e 17 85
e 17 86
e 17 92
e 17 96
e 17 100
e 17 114
e 17 118
e 17 121
e 17 125
e 18 27
e 18 28
e 18 30
e 18 31
e 18 33
e 18 37
e 18 38
e 18 40
e 18 42
e 18 47
e 18 51
e 18 55
e 18 75
e 18 87
e 18 89
e 18 90
e 18 94
e 18 99
e 18 107
e 19 27
e 19 28
e 19 30
e 19 31
e 19 32
e 19 33
e 19 36
e 19 37
e 19 39
e 19 40
e 19 41
e 19 45
e 19 47
e 19 50
e 19 51
e 19 55
e 19 56
e 19 57
e 19 59
e 19 66
e 19 68
e 19 71
e 19 72
e 19 75
e 19 79
e 19 82
e 19 83
e 19 94
e 19 98
e 19 99
e 19 101
e 19 102
e 20 27
e 20 28
e 20 29
e 20 30
e 20 31
e 20 32
e 20 33
e 20 35
e 20 37
e 20 38
e 20 39
e 20 40
e 20 41
e 20 43
e 20 52
e 20 54
e 20 59
e 20 65
e 20 67
e 20 68
e 20 69
e 20 70
e 20 71
e 20 82
e 20 83
e 20 90
e 20 91
e 20 92
e 20 93
e 20 95
e 20 99
e 20 100
e 20 103
e 20 110
e 21 27
e 21 28
e 21 29
e 21 30
e 21 31
e 21 32
e 21 33
e 21 35
e 21 36
e 21 37
e 21 38
e 21 39
e 21 42
e 21 43
e 21 45
e 21 46
e 21 47
e 21 48
e 21 49
e 21 51
e 21 55
e 21 57
e 21 63
e 21 68
e 21 70
e 21 73
e 21 75
e 21 82
e 21 85
e 21 89
e 21 90
e 21 92
e 21 97
e 21 102
e 21 104
e 21 109
e 21 111
e 21 116
e 21 120
e 22 27
e 22 28
e 22 30
e 22 31
e 22 32
e 22 34
e 22 35
e 22 37
e 22 38
e 22 39
e 22 40
e 22 41
e 22 44
e 22 60
e 22 77
e 22 88
e 22 89
e 22 91
e 22 107
e 22 115
e 23 27
e 23 29
e 23 30
e 23 32
e 23 33
e 23 34
e 23 35
e 23 36
e 23 42
e 23 44
e 23 46
e 23 47
e 23 51
e 23 54
e 23 57
e 23 58
e 23 60
e 23 64
e 23 67
e 23 75
e 23 76
e 23 78
e 23 82
e 23 83
e 23 94
e 23 96
e 23 103
e 23 106
e 23 113
e 23 117
e 23 122
e 24 27
e 24 28
e 24 29
e 24 30
e 24 31
e 24 32
e 24 33
e 24 34
e 24 36
e 24 37
e 24 41
e 24 44
e 24 45
e 24 47
e 24 48
e 24 49
e 24 52
e 24 53
e 24 54
e 24 55
e 24 56
e 24 57
e 24 59
e 24 60
e 24 61
e 24 63
e 24 65
e 24 66
e 24 68
e 24 73
e 24 74
e 24 75
e 24 77
e 24 80
e 24 88
e 24 91
e 24 102
e 24 107
e 24 113
e 24 114
e 24 124
e 24 125
e 25 27
e 25 28
e 25 29
e 25 30
e 25 33
e 25 34
e 25 37
e 25 41
e 25 42
e 25 43
e 25 44
e 25 46
e 25 47
e 25 49
e 25 50
e 25 53
e 25 54
e 25 55
e 25 58
e 25 60
e 25 64
e 25 67
e 25 71
e 25 72
e 25 74
e 25 76
e 25 78
e 25 81
e 25 83
e 25 86
e 25 89
e 25 92
e 25 98
e 25 101
e 25 102
e 25 103
e 25 109
e 25 119
e 25 121
e 26 27
e 26 28
e 26 29
e 26 30
e 26 32
e 26 34
e 26 35
e 26 36
e 26 37
e 26 38
e 26 39
e 26 41
e 26 42
e 26 43
e 26 44
e 26 47
e 26 49
e 26 50
e 26 51
e 26 53
e 26 59
e 26 60
e 26 61
e 26 66
e 26 69
e 26 70
e 26 72
e 26 74
e 26 75
e 26 85
e 26 87
e 26 90
e 26 92
e 26 102
e 26 104
e 26 105
e 26 110
e 26 116
e 26 121
e 26 124
e 27 28
e 27 29
e 27 30
e 27 31
e 27 32
e 27 33
e 27 34
e 27 35
e 27 36
e 27 37
e 27 38
e 27 39
e 27 40
e 27 41
e 27 42
e 27 43
e 27 44
e 27 45
e 27 47
e 27 48
e 27 49
e 27 50
e 27 51
e 27 53
e 27 54
e 27 55
e 27 56
e 27 57
e 27 58
e 27 59
e 27 60
e 27 61
e 27 62
e 27 63
e 27 64
e 27 65
e 27 70
e 27 71
e 27 72
e 27 74
e 27 77
e 27 78
e 27 79
e 27 84
e 27 87
e 27 92
e 27 93
e 27 94
e 27 95
e 27 97
e 27 98
e 27 100
e 27 105
e 27 106
e 27 107
e 27 109
e 27 112
e 27 116
e 27 117
e 27 119
e 27 120
e 27 124
e 27 125
e 28 29
e 28 30
e 28 31
e 28 32
e 28 33
e 28 34
e 28 35
e 28 36
e 28 37
e 28 38
e 28 39
e 28 40
e 28 41
e 28 42
e 28 43
e 28 44
e 28 45
e 28 46
e 28 48
e 28 49
e 28 50
e 28 52
e 28 53
e 28 54
e 28 57
e 28 58
e 28 59
e 28 60
e 28 62
e 28 63
e 28 65
e 28 66
e 28 67
e 28 68
e 28 69
e 28 71
e 28 72
e 28 73
e 28 74
e 28 76
e 28 77
e 28 79
e 28 81
e 28 82
e 28 84
e 28 86
e 28 88
e 28 89
e 28 90
e 28 93
e 28 96
e 28 100
e 28 102
e 28 103
e 28 104
e 28 105
e 28 108
e 28 111
e 28 112
e 28 113
e 28 114
e 28 115
e 28 116
e 28 120
e 28 122
e 29 30
e 29 31
e 29 32
e 29 33
e 29 34
e 29 35
e 29 36
e 29 37
e 29 38
e 29 39
e 29 40
e 29 41
e 29 42
e 29 43
e 29 44
e 29 45
e 29 46
e 29 47
e 29 48
e 29 49
e 29 50
e 29 51
e 29 52
e 29 53
e 29 54
e 29 55
e 29 56
e 29 61
e 29 62
e 29 64
e 29 66
e 29 67
e 29 68
e 29 70
e 29 71
e 29 72
e 29 73
e 29 78
e 29 85
e 29 86
e 29 88
e 29 89
e 29 90
e 29 91
e 29 92
e 29 94
e 29 96
e 29 98
e 29 99
e 29 100
e 29 102
e 29 103
e 29 105
e 29 107
e 29 108
e 29 109
e 29 110
e 29 111
e 29 113
e 29 114
e 29 115
e 29 116
e 29 117
e 29 119
e 29 120
e 29 125
e 30 31
e 30 32
e 30 33
e 30 34
e 30 35
e 30 36
e 30 37
e 30 38
e 30 39
e 30 42
e 30 43
e 30 44
e 30 45
e 30 48
e 30 49
e 30 50
e 30 51
e 30 52
e 30 53
e 30 54
e 30 55
e 30 56
e 30 57
e 30 58
e 30 60
e 30 65
e 30 66
e 30 67
e 30 69
e 30 77
e 30 78
e 30 79
e 30 80
e 30 81
e 30 83
e 30 85
e 30 86
e 30 89
e 30 91
e 30 92
e 30 95
e 30 97
e 30 100
e 30 102
e 30 103
e 30 106
e 30 109
e 30 110
e 30 114
e 30 116
e 30 123
e 31 32
e 31 33
e 31 34
e 31 35
e 31 36
e 31 37
e 31 38
e 31 39
e 31 40
e 31 41
e 31 42
e 31 43
e 31 45
e 31 46
e 31 47
e 31 48
e 31 50
e 31 51
e 31 54
e 31 56
e 31 57
e 31 59
e 31 60
e 31 62
e 31 63
e 31 69
e 31 73
e 31 76
e 31 77
e 31 80
e 31 81
e 31 83
e 31 84
e 31 87
e 31 88
e 31 95
e 31 101
e 31 104
e 31 105
e 31 108
e 31 110
e 31 111
e 31 113
e 31 114
e 31 115
e 31 119
e 31 121
e 31 123
e 31 124
e 32 33
e 32 34
e 32 35
e 32 36
e 32 38
e 32 39
e 32 40
e 32 41
e 32 42
e 32 43
e 32 44
e 32 45
e 32 46
e 32 47
e 32 49
e 32 50
e 32 51
e 32 54
e 32 55
e 32 56
e 32 58
e 32 60
e 32 62
e 32 64
e 32 66
e 32 69
e 32 70
e 32 72
e 32 73
e 32 74
e 32 75
e 32 79
e 32 84
e 32 85
e 32 87
e 32 89
e 32 90
e 32 91
e 32 93
e 32 101
e 32 107
e 32 108
e 32 110
e 32 114
e 32 118
e 32 120
e 32 122
e 32 123
e 32 125
e 33 34
e 33 35
e 33 36
e 33 37
e 33 38
e 33 39
e 33 40
e 33 42
e 33 43
e 33 44
e 33 45
e 33 47
e 33 48
e 33 49
e 33 50
e 33 51
e 33 52
e 33 53
e 33 55
e 33 56
e 33 57
e 33 58
e 33 59
e 33 60
e 33 61
e 33 64
e 33 66
e 33 69
e 33 70
e 33 71
e 33 73
e 33 77
e 33 78
e 33 80
e 33 81
e 33 82
e 33 84
e 33 85
e 33 86
e 33 87
e 33 88
e 33 89
e 33 94
e 33 95
e 33 97
e 33 98
e 33 99
e 33 100
e 33 101
e 33 107
e 33 110
e 33 116
e 33 117
e 33 118
e 33 119
e 33 120
e 33 123
e 33 124
e 34 36
e 34 37
e 34 38
e 34 39
e 34 40
e 34 41
e 34 42
e 34 43
e 34 44
e 34 45
e 34 46
e 34 47
e 34 48
e 34 49
e 34 50
e 34 53
e 34 54
e 34 58
e 34 59
e 34 65
e 34 66
e 34 67
e 34 73
e 34 77
e 34 81
e 34 88
e 34 89
e 34 90
e 34 94
e 34 97
e 34 99
e 34 100
e 34 106
e 34 110
e 34 118
e 34 125
e 35 36
e 35 37
e 35 38
e 35 39
e 35 40
e 35 41
e 35 42
e 35 44
e 35 45
e 35 46
e 35 48
e 35 49
e 35 50
e 35 51
e 35 53
e 35 54
e 35 57
e 35 59
e 35 60
e 35 61
e 35 62
e 35 63
e 35 67
e 35 68
e 35 69
e 35 70
e 35 71
e 35 72
e 35 74
e 35 76
e 35 80
e 35 81
e 35 82
e 35 86
e 35 88
e 35 91
e 35 97
e 35 98
e 35 99
e 35 103
e 35 106
e 35 108
e 35 114
e 35 120
e 35 121
e 35 124
e 35 125
e 36 44
e 36 46
e 36 48
e 36 51
e 36 54
e 36 55
e 36 58
e 36 61
e 36 62
e 36 65
e 36 67
e 36 69
e 36 70
e 36 71
e 36 74
e 36 75
e 36 78
e 36 82
e 36 83
e 36 91
e 36 93
e 36 94
e 36 96
e 36 99
e 36 103
e 36 104
e 36 109
e 36 112
e 36 113
e 36 114
e 36 115
e 36 117
e 36 119
e 36 122
e 36 123
e 36 124
e 36 125
e 37 38
e 37 40
e 37 41
e 37 42
e 37 43
e 37 44
e 37 45
e 37 48
e 37 49
e 37 50
e 37 51
e 37 53
e 37 54
e 37 58
e 37 59
e 37 61
e 37 64
e 37 70
e 37 71
e 37 74
e 37 77
e 37 84
e 37 85
e 37 86
e 37 87
e 37 88
e 37 91
e 37 97
e 37 98
e 37 104
e 37 108
e 37 123
e 38 39
e 38 40
e 38 42
e 38 43
e 38 44
e 38 47
e 38 48
e 38 49
e 38 50
e 38 51
e 38 52
e 38 53
e 38 54
e 38 56
e 38 60
e 38 61
e 38 62
e 38 63
e 38 64
e 38 65
e 38 66
e 38 71
e 38 72
e 38 74
e 38 75
e 38 77
e 38 79
e 38 81
e 38 82
e 38 90
e 38 91
e 38 93
e 38 95
e 38 111
e 38 117
e 38 122
e 38 123
e 38 124
e 38 125
e 39 40
e 39 41
e 39 42
e 39 44
e 39 45
e 39 46
e 39 47
e 39 48
e 39 49
e 39 52
e 39 53
e 39 55
e 39 58
e 39 59
e 39 61
e 39 62
e 39 63
e 39 64
e 39 66
e 39 67
e 39 68
e 39 69
e 39 70
e 39 73
e 39 74
e 39 75
e 39 77
e 39 83
e 39 85
e 39 87
e 39 88
e 39 89
e 39 91
e 39 92
e 39 93
e 39 96
e 39 100
e 39 105
e 39 108
e 39 109
e 39 111
e 39 115
e 39 116
e 39 121
e 40 41
e 40 45
e 40 47
e 40 48
e 40 52
e 40 53
e 40 56
e 40 57
e 40 61
e 40 63
e 40 65
e 40 66
e 40 68
e 40 72
e 40 78
e 40 80
e 40 83
e 40 87
e 40 95
e 40 104
e 40 107
e 40 111
e 40 113
e 40 117
e 40 124
e 41 42
e 41 43
e 41 44
e 41 47
e 41 48
e 41 49
e 41 51
e 41 52
e 41 53
e 41 54
e 41 55
e 41 56
e 41 57
e 41 59
e 41 60
e 41 61
e 41 62
e 41 63
e 41 68
e 41 70
e 41 71
e 41 72
e 41 73
e 41 75
e 41 77
e 41 78
e 41 84
e 41 85
e 41 86
e 41 89
e 41 90
e 41 93
e 41 95
e 41 97
e 41 98
e 41 104
e 41 105
e 41 107
e 41 111
e 41 115
e 41 118
e 41 119
e 41 123
e 41 124
e 42 43
e 42 46
e 42 48
e 42 51
e 42 52
e 42 53
e 42 54
e 42 61
e 42 62
e 42 63
e 42 64
e 42 65
e 42 67
e 42 69
e 42 71
e 42 72
e 42 73
e 42 75
e 42 77
e 42 78
e 42 79
e 42 81
e 42 82
e 42 84
e 42 86
e 42 88
e 42 90
e 42 93
e 42 96
e 42 97
e 42 99
e 42 101
e 42 102
e 42 106
e 42 108
e 42 112
e 42 114
e 42 118
e 42 119
e 42 123
e 43 46
e 43 47
e 43 48
e 43 49
e 43 50
e 43 57
e 43 63
e 43 64
e 43 65
e 43 68
e 43 70
e 43 78
e 43 80
e 43 81
e 43 83
e 43 84
e 43 98
e 43 99
e 43 111
e 43 122
e 44 46
e 44 50
e 44 52
e 44 54
e 44 55
e 44 57
e 44 58
e 44 59
e 44 60
e 44 61
e 44 63
e 44 67
e 44 70
e 44 71
e 44 72
e 44 73
e 44 77
e 44 79
e 44 83
e 44 85
e 44 86
e 44 89
e 44 91
e 44 92
e 44 93
e 44 96
e 44 100
e 44 101
e 44 102
e 44 104
e 44 110
e 44 111
e 44 122
e 45 46
e 45 48
e 45 55
e 45 56
e 45 57
e 45 60
e 45 61
e 45 62
e 45 64
e 45 66
e 45 71
e 45 79
e 45 81
e 45 83
e 45 86
e 45 94
e 45 96
e 45 97
e 45 103
e 45 107
e 45 115
e 45 117
e 46 48
e 46 49
e 46 50
e 46 51
e 46 52
e 46 64
e 46 67
e 46 68
e 46 71
e 46 77
e 46 79
e 46 80
e 46 84
e 46 86
e 46 91
e 46 94
e 46 95
e 46 100
e 46 101
e 46 102
e 46 111
e 46 112
e 46 113
e 46 115
e 46 116
e 47 55
e 47 59
e 47 60
e 47 62
e 47 64
e 47 65
e 47 67
e 47 69
e 47 72
e 47 74
e 47 76
e 47 86
e 47 88
e 47 91
e 47 92
e 47 101
e 47 103
e 47 104
e 47 106
e 47 107
e 47 110
e 47 113
e 47 115
e 47 118
e 47 120
e 47 121
e 47 124
e 48 50
e 48 51
e 48 52
e 48 53
e 48 54
e 48 55
e 48 56
e 48 57
e 48 58
e 48 60
e 48 62
e 48 67
e 48 72
e 48 74
e 48 77
e 48 79
e 48 83
e 48 84
e 48 87
e 48 94
e 48 96
e 48 98
e 48 101
e 48 105
e 48 108
e 48 110
e 48 114
e 48 117
e 48 118
e 48 122
e 49 53
e 49 54
e 49 55
e 49 56
e 49 58
e 49 59
e 49 60
e 49 61
e 49 63
e 49 65
e 49 67
e 49 68
e 49 71
e 49 72
e 49 75
e 49 76
e 49 81
e 49 85
e 49 90
e 49 93
e 49 94
e 49 96
e 49 98
e 49 101
e 49 104
e 49 105
e 49 107
e 49 109
e 49 112
e 49 116
e 49 118
e 49 119
e 49 121
e 49 122
e 49 123
e 50 51
e 50 55
e 50 57
e 50 61
e 50 62
e 50 63
e 50 64
e 50 65
e 50 67
e 50 68
e 50 69
e 50 72
e 50 74
e 50 76
e 50 79
e 50 80
e 50 81
e 50 83
e 50 86
e 50 88
e 50 93
e 50 105
e 50 109
e 50 112
e 50 113
e 50 123
e 51 52
e 51 56
e 51 57
e 51 58
e 51 61
e 51 62
e 51 64
e 51 66
e 51 68
e 51 69
e 51 73
e 51 74
e 51 79
e 51 80
e 51 84
e 51 89
e 51 90
e 51 94
e 51 95
e 51 105
e 51 106
e 51 109
e 51 115
e 51 123
e 51 125
e 52 56
e 52 59
e 52 61
e 52 64
e 52 65
e 52 66
e 52 70
e 52 73
e 52 74
e 52 76
e 52 77
e 52 79
e 52 80
e 52 82
e 52 84
e 52 87
e 52 92
e 52 93
e 52 96
e 52 98
e 52 99
e 52 104
e 52 105
e 52 109
e 52 114
e 52 121
e 53 54
e 53 56
e 53 61
e 53 63
e 53 64
e 53 66
e 53 68
e 53 71
e 53 76
e 53 80
e 53 82
e 53 87
e 53 89
e 53 98
e 53 103
e 53 104
e 53 109
e 53 114
e 53 115
e 53 117
e 53 118
e 54 56
e 54 58
e 54 59
e 54 61
e 54 63
e 54 64
e 54 65
e 54 67
e 54 68
e 54 78
e 54 80
e 54 87
e 54 89
e 54 96
e 54 103
e 54 111
e 54 112
e 54 119
e 54 120
e 54 124
e 55 58
e 55 59
e 55 60
e 55 65
e 55 72
e 55 73
e 55 74
e 55 75
e 55 79
e 55 82
e 55 83
e 55 87
e 55 89
e 55 90
e 55 92
e 55 93
e 55 95
e 55 102
e 55 104
e 55 105
e 55 107
e 55 109
e 55 110
e 55 114
e 55 118
e 56 59
e 56 66
e 56 80
e 56 81
e 56 84
e 56 85
e 56 92
e 56 97
e 56 107
e 56 118
e 57 65
e 57 73
e 57 75
e 57 76
e 57 78
e 57 79
e 57 85
e 57 88
e 57 93
e 57 95
e 57 97
e 57 111
e 57 113
e 57 114
e 57 117
e 57 119
e 57 123
e 57 124
e 58 61
e 58 66
e 58 69
e 58 71
e 58 72
e 58 75
e 58 77
e 58 78
e 58 79
e 58 81
e 58 83
e 58 84
e 58 87
e 58 102
e 58 104
e 58 112
e 58 118
e 58 120
e 59 62
e 59 63
e 59 72
e 59 74
e 59 75
e 59 76
e 59 79
e 59 82
e 59 84
e 59 87
e 59 91
e 59 92
e 59 93
e 59 94
e 59 95
e 59 96
e 59 102
e 59 106
e 59 107
e 59 109
e 59 110
e 59 119
e 59 123
e 60 61
e 60 65
e 60 66
e 60 67
e 60 69
e 60 70
e 60 73
e 60 74
e 60 81
e 60 86
e 60 87
e 60 93
e 60 95
e 60 96
e 60 98
e 60 106
e 60 108
e 60 117
e 60 123
e 60 125
e 61 63
e 61 68
e 61 69
e 61 73
e 61 75
e 61 76
e 61 80
e 61 82
e 61 84
e 61 85
e 61 86
e 61 88
e 61 99
e 61 100
e 61 102
e 61 104
e 61 108
e 61 109
e 61 114
e 61 115
e 62 67
e 62 68
e 62 69
e 62 71
e 62 77
e 62 78
e 62 82
e 62 83
e 62 84
e 62 91
e 62 92
e 62 94
e 62 97
e 62 102
e 62 110
e 62 111
e 62 117
e 62 118
e 62 121
e 62 122
e 63 73
e 63 76
e 63 77
e 63 78
e 63 86
e 63 91
e 63 94
e 63 97
e 63 98
e 63 99
e 63 123
e 64 65
e 64 67
e 64 75
e 64 80
e 64 81
e 64 82
e 64 83
e 64 87
e 64 88
e 64 93
e 64 100
e 64 101
e 65 71
e 65 78
e 65 82
e 65 84
e 65 86
e 65 95
e 65 98
e 65 105
e 65 106
e 65 107
e 65 110
e 65 111
e 65 112
e 65 113
e 65 118
e 65 122
e 66 70
e 66 73
e 66 76
e 66 82
e 66 101
e 66 103
e 66 104
e 66 105
e 66 110
e 66 113
e 66 116
e 66 117
e 66 120
e 67 78
e 67 80
e 67 83
e 67 86
e 67 90
e 67 98
e 67 102
e 67 124
e 68 74
e 68 78
e 68 79
e 68 81
e 68 85
e 68 90
e 68 92
e 68 94
e 68 99
e 68 101
e 68 112
e 68 115
e 68 125
e 69 70
e 69 73
e 69 75
e 69 76
e 69 90
e 69 96
e 69 97
e 69 98
e 69 102
e 69 105
e 69 110
e 69 115
e 69 117
e 69 119
e 69 120
e 69 124
e 70 72
e 70 74
e 70 77
e 70 82
e 70 84
e 70 85
e 70 87
e 70 88
e 70 94
e 70 95
e 70 97
e 70 100
e 70 101
e 70 103
e 70 106
e 70 111
e 70 122
e 71 73
e 71 75
e 71 79
e 71 80
e 71 84
e 71 90
e 71 91
e 71 93
e 71 97
e 71 102
e 71 105
e 71 116
e 71 119
e 72 76
e 72 78
e 72 89
e 72 94
e 72 97
e 72 101
e 72 105
e 72 106
e 72 107
e 72 108
e 72 116
e 72 117
e 72 125
e 73 81
e 73 82
e 73 83
e 73 90
e 73 93
e 73 95
e 73 98
e 73 102
e 73 105
e 73 106
e 73 108
e 74 75
e 74 77
e 74 78
e 74 79
e 74 85
e 74 90
e 74 101
e 74 104
e 74 122
e 75 78
e 75 80
e 75 81
e 75 86
e 75 88
e 75 91
e 75 103
e 75 105
e 75 106
e 75 108
e 75 119
e 76 80
e 76 88
e 76 91
e 76 107
e 76 110
e 76 116
e 76 117
e 76 122
e 77 82
e 77 85
e 77 92
e 77 95
e 77 96
e 77 97
e 77 115
e 77 117
e 77 121
e 77 122
e 77 124
e 77 125
e 78 82
e 78 88
e 78 89
e 78 99
e 78 103
e 78 110
e 78 111
e 78 114
e 78 116
e 78 121
e 79 85
e 79 88
e 79 89
e 79 97
e 79 99
e 79 100
e 79 104
e 79 106
e 79 108
e 79 109
e 79 111
e 79 119
e 79 124
e 79 125
e 80 84
e 80 90
e 80 96
e 80 99
e 80 103
e 81 88
e 81 94
e 81 97
e 81 99
e 81 100
e 81 101
e 81 106
e 81 107
e 81 114
e 82 85
e 82 87
e 82 90
e 82 95
e 82 98
e 82 102
e 82 104
e 82 106
e 82 109
e 82 120
e 83 94
e 83 103
e 83 108
e 83 112
e 83 118
e 83 119
e 83 121
e 83 123
e 84 87
e 84 91
e 84 105
e 84 106
e 84 108
e 84 120
e 84 122
e 84 123
e 85 89
e 85 101
e 85 102
e 85 106
e 85 107
e 85 112
e 85 115
e 85 125
e 86 95
e 86 96
e 86 100
e 86 108
e 86 120
e 87 93
e 87 94
e 87 103
e 87 104
e 87 111
e 87 112
e 87 117
e 88 91
e 88 106
e 88 107
e 88 108
e 88 112
e 88 120
e 88 123
e 88 124
e 89 91
e 89 95
e 89 101
e 89 103
e 89 118
e 89 121
e 90 94
e 90 98
e 91 98
e 91 107
e 91 113
e 91 116
e 91 122
e 92 100
e 92 112
e 92 115
e 92 121
e 93 96
e 93 98
e 93 99
e 93 100
e 93 109
e 93 111
e 93 112
e 93 117
e 93 124
e 93 125
e 94 103
e 94 108
e 94 111
e 94 112
e 94 113
e 94 122
e 95 104
e 95 112
e 95 122
e 96 105
e 96 115
e 96 120
e 96 121
e 97 102
e 97 111
e 97 117
e 97 119
e 97 124
e 98 100
e 98 101
e 98 113
e 98 119
e 98 120
e 98 121
e 98 122
e 99 100
e 99 106
e 99 107
e 99 109
e 99 111
e 99 112
e 99 114
e 99 125
e 100 105
e 100 121
e 101 111
e 101 115
e 101 122
e 101 124
e 101 125
e 102 104
e 102 113
e 102 120
e 103 108
e 103 109
e 103 117
e 103 118
e 103 121
e 103 125
e 104 106
e 105 107
e 105 108
e 105 112
e 105 113
e 105 115
e 105 116
e 105 118
e 106 113
e 106 116
e 106 119
e 107 110
e 107 114
e 108 117
e 108 120
e 109 112
e 109 118
e 109 119
e 109 121
e 109 124
e 110 115
e 111 113
e 111 123
e 111 124
e 114 115
e 114 122
e 114 125
e 115 116
e 115 120
e 117 118
e 117 123
e 118 119
e 118 121
e 119 120
e 119 121
e 121 123
